c read Graph
c width = 17
c time = 25 ms
c width = 4
c time = 39 ms
c width = 4
c time = 4930 ms
s td 24 5 28
b 1 1 2 8
b 2 2 3 8 9
b 3 5 6 13 14
b 4 3 8 9 15
b 5 5 13 14 21
b 6 15 16 23 24
b 7 20 21 26 27
b 8 3 4 5 11
b 9 3 9 10 15 16
b 10 3 10 15 16 24
b 11 3 10 16 17 24
b 12 3 10 11 17 24
b 13 3 5 11 17 24
b 14 5 11 17 18 24
b 15 5 11 12 18 24
b 16 5 12 18 24 25
b 17 5 12 18 19 25
b 18 5 12 13 19 25
b 19 5 13 19 21 25
b 20 13 19 20 21 25
b 21 19 20 21 25 26
b 22 21 27 28
b 23 15 22 23
b 24 6 7 14
1 2
2 4
3 24
3 5
4 9
5 19
6 23
6 10
7 22
7 21
8 13
9 10
10 11
11 12
12 13
13 14
14 15
15 16
16 17
17 18
18 19
19 20
20 21
